(declare-datatypes ((Lst 0)) (((cons (param12 Int) (param13 Lst))(nil))))
(declare-datatypes ((Queue 0)) (((queue  (param14 Lst) (param15 Lst)))))
(declare-fun append (Lst Lst ) Lst)
(declare-fun len (Lst ) Int)
(assert (forall ((|_FH_2'| Lst)) (= (append nil |_FH_2'|) |_FH_2'|)))
(assert (forall ((x Int) (_FH_0 Lst) (_FH_1 Lst)) (= (append (cons x _FH_0) _FH_1) (cons x (append _FH_0 _FH_1)))))
(assert (= (len nil) 0))
(assert (forall ((x Int) (_FH_3 Lst)) (=> true (= (len (cons x _FH_3)) (+ (len _FH_3) 1)))))
(assert (not (forall ((x Int) (_FH_3 Lst)) (=> true (= (len (cons x _FH_3)) (+ (len _FH_3) 1))))))
(check-sat)